p cnf 20 59
100
104
201 202 203 
301 302 303 
401 402 403 
-101
-102
-103
-201 -202
-201 -203
-202 -203
-301 -302
-301 -303
-302 -303
-401 -402
-401 -403
-402 -403
201 301 401 
202 302 402 
203 303 403 
-200
-204
-300
-304
-400
-404
-201 -401
-202 -402
-203 -403
-100 201
-101 202
-102 203
-103 204
-200 101
-201 102
-202 103
-203 104
-100 301
-101 302
-102 303
-103 304
-300 101
-301 102
-302 103
-303 104
-200 301
-201 302
-202 303
-203 304
-300 201
-301 202
-302 203
-303 204
-100 101
-101 102
-102 103
-103 104
-400 101
-401 102
-402 103
-403 104
